17
acetophenone starting geometry; charge 0; unpaired electrons 0
C     -2.094000     0.122000     0.000000
C     -1.402000    -1.087000     0.000000
C     -0.009000    -1.103000     0.000000
C      0.711000     0.087000     0.000000
C      0.017000     1.296000     0.000000
C     -1.374000     1.312000     0.000000
C      2.205000     0.067000     0.000000
O      2.823000     1.105000     0.000000
C      2.893000    -1.280000     0.000000
H     -3.178000     0.134000     0.000000
H     -1.953000    -2.021000     0.000000
H      0.518000    -2.049000     0.000000
H      0.566000     2.232000     0.000000
H     -1.902000     2.258000     0.000000
H      3.981000    -1.204000     0.000000
H      2.572000    -1.839000     0.890000
H      2.572000    -1.839000    -0.890000
