10
MMFF94 geometry used for B3LYP/def2-SVP single point
C   1.2842951172  0.1407859160 -0.0189450162
C  -0.0550614263 -0.1589069761  0.5980055804
O  -0.1640903121 -0.4735619166  1.7821337421
C  -1.2544977580 -0.0547912861 -0.3046754068
H   1.4766583316 -0.5599697087 -0.8350679648
H   1.2938074018  1.1675352712 -0.3928618745
H   2.0699156661  0.0312600089  0.7337799457
H  -2.1611957799 -0.2946960210  0.2575831237
H  -1.1534884227 -0.7625784168 -1.1310854053
H  -1.3363428177  0.9649231291 -0.6888667243
