%chk=acetone.chk
%mem=4GB
%nprocshared=4
#p wB97XD/def2SVP Opt Freq Int=UltraFine SCF=Tight

Acetone geometry optimization and frequency calculation

0 1
C          -1.210000    0.000000    0.000000
H          -1.580000    0.515000    0.890000
H          -1.580000    0.515000   -0.890000
H          -1.580000   -1.030000    0.000000
C           0.260000    0.000000    0.000000
O           0.870000    1.050000    0.000000
C           0.920000   -1.340000    0.000000
H           2.010000   -1.260000    0.000000
H           0.610000   -1.900000    0.890000
H           0.610000   -1.900000   -0.890000
